BAYES 
7 
2 2 2 2 2 16 4 
7 
2	4 0 
3	5 0 1 
3	6 1 2 
3	5 2 3 
1	4 
1	5 
1	6 

4 
1.0 0.0 
0.0 1.0 

64 
1.0 0.0 
1.0 0.0 
0.0 1.0 
0.0 1.0 
1.0 0.0 
1.0 0.0 
0.0 1.0 
0.0 1.0 
1.0 0.0 
1.0 0.0 
0.0 1.0 
0.0 1.0 
1.0 0.0 
1.0 0.0 
0.0 1.0 
0.0 1.0 
1.0 0.0 
0.0 1.0 
1.0 0.0 
0.0 1.0 
1.0 0.0 
0.0 1.0 
1.0 0.0 
0.0 1.0 
1.0 0.0 
0.0 1.0 
1.0 0.0 
0.0 1.0 
1.0 0.0 
0.0 1.0 
1.0 0.0 
0.0 1.0 

16 
1.0 0.0 
1.0 0.0 
0.0 1.0 
0.0 1.0 
1.0 0.0 
0.0 1.0 
1.0 0.0 
0.0 1.0 

64 
1.0 0.0 
1.0 0.0 
1.0 0.0 
1.0 0.0 
1.0 0.0 
1.0 0.0 
1.0 0.0 
1.0 0.0 
0.0 1.0 
0.0 1.0 
0.0 1.0 
0.0 1.0 
0.0 1.0 
0.0 1.0 
0.0 1.0 
0.0 1.0 
1.0 0.0 
1.0 0.0 
1.0 0.0 
1.0 0.0 
0.0 1.0 
0.0 1.0 
0.0 1.0 
0.0 1.0 
1.0 0.0 
1.0 0.0 
1.0 0.0 
1.0 0.0 
0.0 1.0 
0.0 1.0 
0.0 1.0 
0.0 1.0 

2 
0.757 0.243 

16 
0.082 0.014 0.005 0.001 0.003 0.001 0.831 0.001 0.054 0.001 0.002 0.001 0.001 0.001 0.001 0.001 

4 
0.005 0.051 0.707 0.237 

